p tw 24 36
1 4
1 13
1 18
2 3
2 11
2 15
3 14
3 19
4 11
4 12
5 6
5 12
5 16
6 16
6 21
7 12
7 17
7 20
8 13
8 21
8 24
9 11
9 15
9 22
10 18
10 19
10 22
13 15
14 21
14 24
16 20
17 18
17 23
19 23
20 22
23 24
